(set-logic QF_S)
(declare-fun var0 () String)
(declare-fun var1 () String)
(declare-fun var2 () String)
(declare-fun var3 () String)
(declare-fun var4 () String)
(declare-fun var5 () String)
(declare-fun var6 () String)
(declare-fun var7 () String)
(declare-fun var8 () String)
(declare-fun var9 () String)
(declare-fun var10 () String)
(declare-fun var11 () String)
(declare-fun var12 () String)
(declare-fun var13 () String)
(declare-fun var14 () String)
(declare-fun var15 () String)
(declare-fun var16 () String)
(declare-fun var17 () String)
(declare-fun var18 () String)
(declare-fun var19 () String)
(declare-fun var20 () String)
(declare-fun var21 () String)
(declare-fun var22 () String)
(declare-fun var23 () String)
(declare-fun var24 () String)
(declare-fun var25 () String)
(declare-fun var26 () String)
(declare-fun var27 () String)
(declare-fun var28 () String)
(declare-fun var29 () String)
(declare-fun var30 () String)
(declare-fun var31 () String)
(declare-fun var32 () String)
(declare-fun var33 () String)
(declare-fun var34 () String)
(declare-fun var35 () String)
(declare-fun var36 () String)
(declare-fun var37 () String)
(declare-fun var38 () String)
(declare-fun var39 () String)
(declare-fun var40 () String)
(declare-fun var41 () String)
(declare-fun var42 () String)
(declare-fun var43 () String)
(declare-fun var44 () String)
(declare-fun var45 () String)
(declare-fun var46 () String)
(declare-fun var47 () String)
(declare-fun var48 () String)
(declare-fun var49 () String)
(declare-fun var50 () String)
(declare-fun var51 () String)
(declare-fun var52 () String)
(declare-fun var53 () String)
(declare-fun var54 () String)
(declare-fun var55 () String)
(declare-fun var56 () String)
(declare-fun var57 () String)
(declare-fun var58 () String)
(declare-fun var59 () String)
(declare-fun var60 () String)
(assert (= var0 (Concat var1 var2)))
(assert (= var2 (Concat var3 var4)))
(assert (= var4 (Concat var5 var6)))
(assert (= var6 (Concat var7 var8)))
(assert (= var8 (Concat var9 var10)))
(assert (= var10 (Concat var11 var12)))
(assert (= var12 (Concat var13 var14)))
(assert (= var14 (Concat var15 var16)))
(assert (= var16 (Concat var17 var18)))
(assert (= var18 (Concat var19 var20)))
(assert (= var20 (Concat var21 var22)))
(assert (= var22 (Concat var23 var24)))
(assert (= var24 (Concat var25 var26)))
(assert (= var26 (Concat var27 var28)))
(assert (= var28 (Concat var29 var30)))
(assert (= var30 (Concat var31 var32)))
(assert (= var32 (Concat var33 var34)))
(assert (= var34 (Concat var35 var36)))
(assert (= var36 (Concat var37 var38)))
(assert (= var38 (Concat var39 var40)))
(assert (= var40 (Concat var41 var42)))
(assert (= var42 (Concat var43 var44)))
(assert (= var44 (Concat var45 var46)))
(assert (= var46 (Concat var47 var48)))
(assert (= var48 (Concat var49 var50)))
(assert (= var50 (Concat var51 var52)))
(assert (= var52 (Concat var53 var54)))
(assert (= var54 (Concat var55 var56)))
(assert (= var56 (Concat var57 var58)))
(assert (= var58 (Concat var59 var60)))
(assert (= var0 "solution"))
(assert (= "p" (CharAt var45 306)))
(assert (= "0" (CharAt var38 798)))
(assert (= "/" (CharAt var34 83)))
(assert (= "s" (CharAt var10 581)))
(assert (= "!" (CharAt var48 120)))
(assert (= "\\" (CharAt var51 474)))
(assert (= "j" (CharAt var8 446)))
(assert (= "S" (CharAt var49 59)))
(assert (= "?" (CharAt var18 82)))
(assert (= "D" (CharAt var28 641)))
(assert (= "F" (CharAt var0 635)))
(assert (= "?" (CharAt var22 297)))
(assert (= "5" (CharAt var44 563)))
(assert (= "/" (CharAt var25 97)))
(assert (= "s" (CharAt var14 110)))
(assert (= "<" (CharAt var13 898)))
(assert (= "}" (CharAt var32 887)))
(assert (= "e" (CharAt var4 869)))
(assert (= "s" (CharAt var26 631)))
(assert (= "U" (CharAt var8 167)))
(assert (= "+" (CharAt var2 967)))
(assert (= "=" (CharAt var12 465)))
(assert (= "<" (CharAt var29 347)))
(assert (= "`" (CharAt var54 844)))
(assert (= "M" (CharAt var39 717)))
(assert (= "|" (CharAt var21 333)))
(assert (= "W" (CharAt var8 483)))
(assert (= "\\" (CharAt var15 651)))
(assert (= "g" (CharAt var56 664)))
(assert (= "U" (CharAt var49 718)))
(assert (= "0" (CharAt var37 454)))
(assert (= "4" (CharAt var5 129)))
(assert (= "Y" (CharAt var31 326)))
(assert (= "N" (CharAt var60 279)))
(assert (= "Y" (CharAt var48 991)))
(assert (= "3" (CharAt var1 668)))
(assert (= "C" (CharAt var16 891)))
(assert (= "t" (CharAt var58 239)))
(assert (= "&" (CharAt var7 331)))
(assert (= "<" (CharAt var45 593)))
(assert (= "`" (CharAt var33 457)))
(assert (= "E" (CharAt var9 11)))
(assert (= "f" (CharAt var43 94)))
(assert (= "i" (CharAt var58 265)))
(assert (= "W" (CharAt var6 162)))
(assert (= "Y" (CharAt var19 730)))
(assert (= "#" (CharAt var1 59)))
(assert (= "P" (CharAt var59 660)))
(assert (= "a" (CharAt var6 637)))
(assert (= "P" (CharAt var12 612)))
(assert (= "w" (CharAt var4 748)))
(assert (= "U" (CharAt var8 82)))
(assert (= "6" (CharAt var28 465)))
(assert (= "|" (CharAt var27 965)))
(assert (= "X" (CharAt var6 9)))
(assert (= "2" (CharAt var10 454)))
(assert (= "6" (CharAt var55 572)))
(assert (= "*" (CharAt var38 485)))
(assert (= "#" (CharAt var27 45)))
(assert (= "8" (CharAt var24 624)))
(assert (= "-" (CharAt var25 302)))
(assert (= "i" (CharAt var54 396)))
(assert (= "?" (CharAt var55 57)))
(assert (= "b" (CharAt var4 62)))
(assert (= "V" (CharAt var1 283)))
(assert (= "_" (CharAt var34 958)))
(assert (= "5" (CharAt var29 437)))
(assert (= "," (CharAt var29 288)))
(assert (= "c" (CharAt var31 23)))
(assert (= "L" (CharAt var54 338)))
(assert (= "1" (CharAt var40 632)))
(assert (= "^" (CharAt var46 806)))
(assert (= "Z" (CharAt var50 903)))
(assert (= "W" (CharAt var17 116)))
(assert (= ";" (CharAt var28 431)))
(assert (= "1" (CharAt var56 918)))
(assert (= "E" (CharAt var54 559)))
(assert (= "w" (CharAt var37 914)))
(assert (= "6" (CharAt var43 153)))
(assert (= "s" (CharAt var13 315)))
(assert (= "W" (CharAt var48 604)))
(assert (= "}" (CharAt var39 715)))
(assert (= "u" (CharAt var30 907)))
(assert (= "{" (CharAt var29 8)))
(assert (= "j" (CharAt var58 361)))
(assert (= "9" (CharAt var41 433)))
(assert (= "#" (CharAt var22 495)))
(assert (= "u" (CharAt var35 758)))
(assert (= "Q" (CharAt var43 586)))
(assert (= "u" (CharAt var5 271)))
(assert (= "q" (CharAt var21 877)))
(assert (= "e" (CharAt var36 846)))
(assert (= "2" (CharAt var25 981)))
(assert (= "z" (CharAt var45 338)))
(assert (= "F" (CharAt var15 645)))
(assert (= "]" (CharAt var56 72)))
(assert (= "b" (CharAt var34 65)))
(assert (= "6" (CharAt var50 182)))
(assert (= "&" (CharAt var6 653)))
(assert (= ">" (CharAt var37 692)))
(assert (= "'" (CharAt var53 285)))
(assert (= "/" (CharAt var45 853)))
(assert (= "n" (CharAt var0 19)))
(assert (= "#" (CharAt var34 716)))
(assert (= "g" (CharAt var13 282)))
(assert (= "Z" (CharAt var17 296)))
(assert (= "$" (CharAt var16 746)))
(assert (= "," (CharAt var0 502)))
(assert (= "." (CharAt var43 9)))
(assert (= "~" (CharAt var39 933)))
(assert (= ";" (CharAt var5 64)))
(assert (= "}" (CharAt var14 816)))
(assert (= "G" (CharAt var10 806)))
(assert (= "n" (CharAt var42 718)))
(assert (= "1" (CharAt var26 354)))
(assert (= "\"" (CharAt var34 76)))
(assert (= "/" (CharAt var0 199)))
(assert (= "{" (CharAt var12 103)))
(assert (= "}" (CharAt var31 41)))
(assert (= "d" (CharAt var53 618)))
(assert (= "C" (CharAt var5 282)))
(assert (= "M" (CharAt var35 654)))
(assert (= "6" (CharAt var34 574)))
(assert (= "Y" (CharAt var7 77)))
(assert (= "n" (CharAt var13 105)))
(assert (= "E" (CharAt var51 936)))
(assert (= "{" (CharAt var16 846)))
(assert (= ">" (CharAt var21 81)))
(assert (= "b" (CharAt var24 163)))
(assert (= ":" (CharAt var17 64)))
(assert (= "U" (CharAt var52 597)))
(assert (= ">" (CharAt var48 752)))
(assert (= "O" (CharAt var32 619)))
(assert (= "}" (CharAt var34 480)))
(assert (= "-" (CharAt var46 396)))
(assert (= "P" (CharAt var49 767)))
(assert (= "i" (CharAt var31 810)))
(assert (= "U" (CharAt var2 591)))
(assert (= "7" (CharAt var40 280)))
(assert (= "g" (CharAt var13 991)))
(assert (= "x" (CharAt var2 791)))
(assert (= "=" (CharAt var11 230)))
(assert (= "7" (CharAt var26 746)))
(assert (= "m" (CharAt var39 562)))
(assert (= "." (CharAt var34 814)))
(assert (= "3" (CharAt var43 928)))
(assert (= "X" (CharAt var54 448)))
(assert (= "^" (CharAt var22 480)))
(assert (= "!" (CharAt var3 850)))
(assert (= "`" (CharAt var20 216)))
(assert (= "l" (CharAt var39 731)))
(assert (= "}" (CharAt var34 22)))
(assert (= "p" (CharAt var41 447)))
(assert (= "Z" (CharAt var47 462)))
(assert (= "o" (CharAt var40 77)))
(assert (= "k" (CharAt var31 560)))
(assert (= "6" (CharAt var57 695)))
(assert (= "b" (CharAt var13 112)))
(assert (= "C" (CharAt var48 354)))
(assert (= "[" (CharAt var49 775)))
(assert (= "0" (CharAt var26 800)))
(assert (= "r" (CharAt var59 866)))
(assert (= "&" (CharAt var29 433)))
(assert (= "L" (CharAt var1 777)))
(assert (= "#" (CharAt var4 7)))
(assert (= "R" (CharAt var15 174)))
(assert (= "%" (CharAt var25 216)))
(assert (= "H" (CharAt var6 722)))
(assert (= "~" (CharAt var18 394)))
(assert (= "D" (CharAt var48 196)))
(assert (= "#" (CharAt var3 204)))
(assert (= "v" (CharAt var26 443)))
(assert (= "X" (CharAt var15 872)))
(assert (= "y" (CharAt var49 447)))
(assert (= "a" (CharAt var13 57)))
(assert (= "a" (CharAt var3 639)))
(assert (= "z" (CharAt var12 105)))
(assert (= "-" (CharAt var21 999)))
(assert (= "1" (CharAt var20 316)))
(assert (= "v" (CharAt var24 575)))
(assert (= "-" (CharAt var57 430)))
(assert (= ";" (CharAt var8 994)))
(assert (= "2" (CharAt var37 826)))
(assert (= "s" (CharAt var39 188)))
(assert (= "$" (CharAt var12 221)))
(assert (= ")" (CharAt var18 114)))
(assert (= "b" (CharAt var34 811)))
(assert (= ">" (CharAt var19 68)))
(assert (= ">" (CharAt var38 734)))
(assert (= "[" (CharAt var6 352)))
(assert (= "L" (CharAt var18 845)))
(assert (= "1" (CharAt var40 91)))
(assert (= "H" (CharAt var18 349)))
(assert (= "p" (CharAt var35 679)))
(assert (= "o" (CharAt var16 0)))
(assert (= "9" (CharAt var3 279)))
(assert (= "P" (CharAt var54 728)))
(assert (= "x" (CharAt var59 424)))
(assert (= "v" (CharAt var19 348)))
(assert (= "\\" (CharAt var28 106)))
(assert (= "E" (CharAt var8 695)))
(assert (= "i" (CharAt var29 793)))
(assert (= "5" (CharAt var50 909)))
(assert (= "4" (CharAt var5 326)))
(assert (= "4" (CharAt var32 462)))
(assert (= "=" (CharAt var39 579)))
(assert (= "q" (CharAt var12 585)))
(assert (= "^" (CharAt var46 462)))
(assert (= "[" (CharAt var35 429)))
(assert (= "S" (CharAt var55 699)))
(assert (= "$" (CharAt var60 718)))
(assert (= "t" (CharAt var43 35)))
(assert (= ")" (CharAt var43 740)))
(assert (= "e" (CharAt var48 370)))
(assert (= "J" (CharAt var11 844)))
(assert (= "m" (CharAt var32 872)))
(assert (= "S" (CharAt var37 200)))
(assert (= "?" (CharAt var30 633)))
(assert (= "0" (CharAt var32 635)))
(assert (= "2" (CharAt var54 382)))
(assert (= "@" (CharAt var40 168)))
(assert (= ">" (CharAt var24 556)))
(assert (= "3" (CharAt var49 87)))
(assert (= "R" (CharAt var53 884)))
(assert (= "}" (CharAt var8 967)))
(assert (= "3" (CharAt var53 127)))
(assert (= "?" (CharAt var19 620)))
(assert (= "F" (CharAt var33 258)))
(assert (= "G" (CharAt var14 915)))
(assert (= "X" (CharAt var11 845)))
(assert (= "(" (CharAt var24 117)))
(assert (= "." (CharAt var22 526)))
(assert (= "M" (CharAt var8 890)))
(assert (= "~" (CharAt var30 652)))
(assert (= "g" (CharAt var25 468)))
(assert (= "}" (CharAt var1 631)))
(assert (= "j" (CharAt var40 486)))
(assert (= "'" (CharAt var17 699)))
(assert (= "F" (CharAt var48 792)))
(assert (= "N" (CharAt var44 962)))
(assert (= "1" (CharAt var46 434)))
(assert (= "Q" (CharAt var4 856)))
(assert (= "z" (CharAt var21 184)))
(assert (= "R" (CharAt var39 444)))
(assert (= "H" (CharAt var15 737)))
(assert (= "]" (CharAt var54 464)))
(assert (= "u" (CharAt var35 874)))
(assert (= "K" (CharAt var30 181)))
(assert (= "g" (CharAt var34 911)))
(assert (= "O" (CharAt var49 894)))
(assert (= "k" (CharAt var56 206)))
(assert (= "I" (CharAt var49 919)))
(assert (= "+" (CharAt var42 68)))
(assert (= "P" (CharAt var51 559)))
(assert (= "G" (CharAt var52 99)))
(assert (= "A" (CharAt var10 552)))
(assert (= "&" (CharAt var11 387)))
(assert (= "I" (CharAt var52 998)))
(assert (= "c" (CharAt var2 465)))
(assert (= "k" (CharAt var31 668)))
(assert (= "q" (CharAt var19 318)))
(assert (= "," (CharAt var17 248)))
(assert (= "L" (CharAt var13 713)))
(assert (= "E" (CharAt var8 740)))
(assert (= "$" (CharAt var26 623)))
(assert (= "'" (CharAt var56 272)))
(assert (= ";" (CharAt var42 920)))
(assert (= "M" (CharAt var15 631)))
(assert (= "-" (CharAt var14 691)))
(assert (= "v" (CharAt var12 231)))
(assert (= "]" (CharAt var18 269)))
(assert (= "h" (CharAt var51 718)))
(assert (= "F" (CharAt var37 127)))
(assert (= "E" (CharAt var59 524)))
(assert (= "`" (CharAt var15 56)))
(assert (= "u" (CharAt var1 281)))
(assert (= "n" (CharAt var24 723)))
(assert (= "<" (CharAt var25 595)))
(assert (= "<" (CharAt var57 173)))
(assert (= "m" (CharAt var43 578)))
(assert (= "W" (CharAt var2 804)))
(assert (= "Y" (CharAt var41 641)))
(assert (= "j" (CharAt var0 636)))
(assert (= "H" (CharAt var55 219)))
(assert (= "r" (CharAt var47 368)))
(assert (= ">" (CharAt var2 91)))
(assert (= "J" (CharAt var54 113)))
(assert (= ">" (CharAt var18 730)))
(assert (= "h" (CharAt var60 284)))
(assert (= "H" (CharAt var24 50)))
(assert (= "c" (CharAt var50 501)))
(assert (= "?" (CharAt var34 62)))
(assert (= "=" (CharAt var23 969)))
(assert (= "N" (CharAt var9 339)))
(assert (= "}" (CharAt var9 370)))
(assert (= "E" (CharAt var20 821)))
(assert (= "," (CharAt var16 708)))
(assert (= "\"" (CharAt var7 493)))
(assert (= "@" (CharAt var36 252)))
(assert (= "C" (CharAt var43 376)))
(assert (= "|" (CharAt var48 62)))
(assert (= "g" (CharAt var2 656)))
(assert (= "a" (CharAt var13 646)))
(assert (= "8" (CharAt var19 56)))
(assert (= "T" (CharAt var51 715)))
(assert (= "?" (CharAt var4 349)))
(assert (= "c" (CharAt var2 459)))
(assert (= "," (CharAt var25 237)))
(assert (= "#" (CharAt var13 736)))
(assert (= "h" (CharAt var41 666)))
(assert (= "K" (CharAt var33 503)))
(assert (= "'" (CharAt var7 932)))
(assert (= "A" (CharAt var54 777)))
(assert (= "c" (CharAt var32 150)))
(assert (= "e" (CharAt var34 147)))
(assert (= "y" (CharAt var31 381)))
(assert (= "f" (CharAt var48 902)))
(assert (= "]" (CharAt var33 589)))
(assert (= ":" (CharAt var1 736)))
(assert (= "=" (CharAt var8 126)))
(assert (= "&" (CharAt var21 7)))
(assert (= "7" (CharAt var57 487)))
(assert (= "#" (CharAt var17 401)))
(assert (= "u" (CharAt var31 339)))
(assert (= "?" (CharAt var55 770)))
(assert (= "-" (CharAt var28 434)))
(assert (= "=" (CharAt var45 476)))
(assert (= "*" (CharAt var50 711)))
(assert (= "f" (CharAt var3 812)))
(assert (= "W" (CharAt var57 583)))
(assert (= "/" (CharAt var2 806)))
(assert (= "R" (CharAt var35 573)))
(assert (= "f" (CharAt var15 534)))
(assert (= ":" (CharAt var6 984)))
(assert (= "Q" (CharAt var47 703)))
(assert (= "]" (CharAt var34 226)))
(assert (= "<" (CharAt var57 837)))
(assert (= "v" (CharAt var44 315)))
(assert (= "q" (CharAt var31 30)))
(assert (= "N" (CharAt var0 586)))
(assert (= "f" (CharAt var30 117)))
(assert (= "T" (CharAt var33 720)))
(assert (= "Y" (CharAt var48 641)))
(assert (= "." (CharAt var27 863)))
(assert (= "}" (CharAt var52 845)))
(assert (= ">" (CharAt var37 652)))
(assert (= "4" (CharAt var45 241)))
(assert (= "y" (CharAt var1 1000)))
(assert (= "w" (CharAt var2 130)))
(assert (= ")" (CharAt var53 358)))
(assert (= "K" (CharAt var28 740)))
(assert (= "[" (CharAt var30 986)))
(assert (= "}" (CharAt var60 924)))
(assert (= "$" (CharAt var36 370)))
(assert (= "M" (CharAt var33 929)))
(assert (= "A" (CharAt var42 867)))
(assert (= "-" (CharAt var58 967)))
(assert (= "}" (CharAt var34 866)))
(assert (= "A" (CharAt var28 885)))
(assert (= "s" (CharAt var51 512)))
(assert (= "\"" (CharAt var59 195)))
(assert (= "*" (CharAt var47 670)))
(assert (= "m" (CharAt var29 584)))
(assert (= ";" (CharAt var57 201)))
(assert (= "j" (CharAt var1 829)))
(assert (= "S" (CharAt var20 786)))
(assert (= "\\" (CharAt var3 291)))
(assert (= "f" (CharAt var57 193)))
(assert (= "," (CharAt var32 552)))
(assert (= "9" (CharAt var55 735)))
(assert (= "\"" (CharAt var11 556)))
(assert (= "'" (CharAt var45 774)))
(assert (= "y" (CharAt var5 573)))
(assert (= "\"" (CharAt var20 842)))
(assert (= "2" (CharAt var20 720)))
(assert (= "\"" (CharAt var22 909)))
(assert (= "R" (CharAt var34 74)))
(assert (= "}" (CharAt var4 689)))
(assert (= "t" (CharAt var42 869)))
(assert (= "N" (CharAt var21 354)))
(assert (= "O" (CharAt var37 63)))
(assert (= "^" (CharAt var29 322)))
(assert (= "X" (CharAt var19 978)))
(assert (= "*" (CharAt var56 537)))
(assert (= ";" (CharAt var4 908)))
(assert (= "'" (CharAt var20 706)))
(assert (= "j" (CharAt var46 515)))
(assert (= "4" (CharAt var4 827)))
(assert (= "Q" (CharAt var51 235)))
(assert (= "O" (CharAt var24 996)))
(assert (= "3" (CharAt var25 222)))
(assert (= "5" (CharAt var54 737)))
(assert (= "\\" (CharAt var47 24)))
(assert (= "g" (CharAt var30 727)))
(assert (= "e" (CharAt var58 558)))
(assert (= "3" (CharAt var27 21)))
(assert (= ";" (CharAt var59 943)))
(assert (= "x" (CharAt var20 176)))
(assert (= "g" (CharAt var46 935)))
(assert (= "0" (CharAt var3 837)))
(assert (= "C" (CharAt var1 655)))
(assert (= "C" (CharAt var4 500)))
(assert (= "?" (CharAt var54 542)))
(assert (= "g" (CharAt var57 548)))
(assert (= "h" (CharAt var14 773)))
(assert (= "R" (CharAt var32 518)))
(assert (= "+" (CharAt var45 145)))
(assert (= "F" (CharAt var22 696)))
(assert (= "=" (CharAt var57 363)))
(assert (= "/" (CharAt var28 17)))
(assert (= "C" (CharAt var1 306)))
(assert (= "M" (CharAt var31 267)))
(assert (= "a" (CharAt var26 346)))
(assert (= "W" (CharAt var55 793)))
(assert (= "c" (CharAt var29 387)))
(assert (= ">" (CharAt var10 220)))
(assert (= "<" (CharAt var21 58)))
(assert (= "S" (CharAt var14 150)))
(assert (= "/" (CharAt var16 687)))
(assert (= "E" (CharAt var58 532)))
(assert (= "u" (CharAt var22 286)))
(assert (= "S" (CharAt var4 482)))
(assert (= "2" (CharAt var31 738)))
(assert (= "n" (CharAt var12 759)))
(assert (= "(" (CharAt var1 890)))
(assert (= "G" (CharAt var30 495)))
(assert (= "K" (CharAt var9 53)))
(assert (= "@" (CharAt var4 125)))
(assert (= "y" (CharAt var17 574)))
(assert (= "|" (CharAt var19 45)))
(assert (= "q" (CharAt var7 185)))
(assert (= "F" (CharAt var47 609)))
(assert (= "O" (CharAt var43 952)))
(assert (= "'" (CharAt var46 491)))
(assert (= "N" (CharAt var21 128)))
(assert (= "P" (CharAt var58 784)))
(assert (= "L" (CharAt var44 262)))
(assert (= "!" (CharAt var26 160)))
(assert (= "x" (CharAt var43 807)))
(assert (= "4" (CharAt var54 436)))
(assert (= "'" (CharAt var37 771)))
(check-sat)